(set-logic QF_UF)
(declare-fun A0 () Bool)
(declare-fun A1 () Bool)
(declare-fun A2 () Bool)
(declare-fun A3 () Bool)
(declare-fun A4 () Bool)
(declare-fun A5 () Bool)
(declare-fun A6 () Bool)
(declare-fun A7 () Bool)
(declare-fun A8 () Bool)
(declare-fun A9 () Bool)
(declare-fun A11 () Bool)
(declare-fun A12 () Bool)
(declare-fun A13 () Bool)
(declare-fun A14 () Bool)
(declare-fun A15 () Bool)
(declare-fun A16 () Bool)
(declare-fun A17 () Bool)
(declare-fun A18 () Bool)
(declare-fun A19 () Bool)
(declare-fun A20 () Bool)
(declare-fun A21 () Bool)
(declare-fun A22 () Bool)
(declare-fun A23 () Bool)
(declare-fun A24 () Bool)
(assert (let ((.def_0 (not A9))) (let ((.def_1 (not A15))) (let ((.def_2 (and .def_1 .def_0))) (let ((.def_3 (not A18))) (let ((.def_4 (not A17))) (let ((.def_5 (and .def_4 .def_3))) (let ((.def_6 (not .def_5))) (let ((.def_7 (or .def_6 .def_2))) (let ((.def_8 (not .def_7))) (let ((.def_9 (not A6))) (let ((.def_10 (not A4))) (let ((.def_11 (or .def_10 .def_9))) (let ((.def_12 (not A1))) (let ((.def_13 (or .def_12 A15))) (let ((.def_14 (not .def_13))) (let ((.def_15 (and .def_14 .def_11))) (let ((.def_16 (not .def_15))) (let ((.def_17 (or .def_16 .def_8))) (let ((.def_18 (not .def_17))) (let ((.def_19 (not A5))) (let ((.def_20 (not A19))) (let ((.def_21 (or .def_20 .def_19))) (let ((.def_22 (not A7))) (let ((.def_23 (or .def_22 A6))) (let ((.def_24 (and .def_23 .def_21))) (let ((.def_25 (not A14))) (let ((.def_26 (or .def_25 A19))) (let ((.def_27 (and .def_10 .def_19))) (let ((.def_28 (and .def_27 .def_26))) (let ((.def_29 (not .def_28))) (let ((.def_30 (and .def_29 .def_24))) (let ((.def_31 (not .def_30))) (let ((.def_32 (and .def_31 .def_18))) (let ((.def_33 (not A11))) (let ((.def_34 (= .def_33 A3))) (let ((.def_35 (and A0 .def_20))) (let ((.def_36 (not .def_35))) (let ((.def_37 (or .def_36 .def_34))) (let ((.def_38 (not .def_37))) (let ((.def_39 (not A3))) (let ((.def_40 (and .def_39 A6))) (let ((.def_41 (= A11 A5))) (let ((.def_42 (and .def_41 .def_40))) (let ((.def_43 (and .def_42 .def_38))) (let ((.def_44 (not .def_43))) (let ((.def_45 (and A9 A20))) (let ((.def_46 (not .def_45))) (let ((.def_47 (= .def_22 .def_19))) (let ((.def_48 (not .def_47))) (let ((.def_49 (= .def_48 .def_46))) (let ((.def_50 (not A13))) (let ((.def_51 (and .def_50 A22))) (let ((.def_52 (or A2 .def_22))) (let ((.def_53 (not .def_52))) (let ((.def_54 (and .def_53 .def_51))) (let ((.def_55 (not .def_54))) (let ((.def_56 (and .def_55 .def_49))) (let ((.def_57 (not .def_56))) (let ((.def_58 (and .def_57 .def_44))) (let ((.def_59 (or .def_58 .def_32))) (let ((.def_60 (not .def_59))) (let ((.def_61 (or A16 .def_22))) (let ((.def_62 (not .def_61))) (let ((.def_63 (not A24))) (let ((.def_64 (or A17 .def_63))) (let ((.def_65 (not .def_64))) (let ((.def_66 (= .def_65 .def_62))) (let ((.def_67 (not .def_66))) (let ((.def_68 (not A12))) (let ((.def_69 (or .def_19 .def_68))) (let ((.def_70 (not A0))) (let ((.def_71 (or .def_0 .def_70))) (let ((.def_72 (not .def_71))) (let ((.def_73 (and .def_72 .def_69))) (let ((.def_74 (not .def_73))) (let ((.def_75 (and .def_74 .def_67))) (let ((.def_76 (not A21))) (let ((.def_77 (or .def_50 .def_76))) (let ((.def_78 (and A23 A14))) (let ((.def_79 (or .def_78 .def_77))) (let ((.def_80 (or .def_39 A0))) (let ((.def_81 (or A1 A12))) (let ((.def_82 (not .def_81))) (let ((.def_83 (or .def_82 .def_80))) (let ((.def_84 (not .def_83))) (let ((.def_85 (and .def_84 .def_79))) (let ((.def_86 (not .def_85))) (let ((.def_87 (or .def_86 .def_75))) (let ((.def_88 (or A23 A12))) (let ((.def_89 (= A14 A0))) (let ((.def_90 (not .def_89))) (let ((.def_91 (and .def_90 .def_88))) (let ((.def_92 (not .def_91))) (let ((.def_93 (not A20))) (let ((.def_94 (not A2))) (let ((.def_95 (or .def_94 .def_93))) (let ((.def_96 (and A22 .def_3))) (let ((.def_97 (or .def_96 .def_95))) (let ((.def_98 (not .def_97))) (let ((.def_99 (and .def_98 .def_92))) (let ((.def_100 (not .def_99))) (let ((.def_101 (and A16 .def_19))) (let ((.def_102 (not .def_101))) (let ((.def_103 (not A22))) (let ((.def_104 (or .def_103 A14))) (let ((.def_105 (or .def_104 .def_102))) (let ((.def_106 (not .def_105))) (let ((.def_107 (not A8))) (let ((.def_108 (and A23 .def_107))) (let ((.def_109 (not .def_108))) (let ((.def_110 (or .def_103 A9))) (let ((.def_111 (not .def_110))) (let ((.def_112 (or .def_111 .def_109))) (let ((.def_113 (not .def_112))) (let ((.def_114 (and .def_113 .def_106))) (let ((.def_115 (and .def_114 .def_100))) (let ((.def_116 (not .def_115))) (let ((.def_117 (= .def_116 .def_87))) (let ((.def_118 (not .def_117))) (let ((.def_119 (and .def_118 .def_60))) (let ((.def_120 (not .def_119))) .def_120))))))))))))))))))))))))))))))))))))))))))))))))))))))))))))))))))))))))))))))))))))))))))))))))))))))))))))))))))))))))))
(check-sat)
